
******************************************************************************
This program contains Ipopt, a library for large-scale nonlinear optimization.
 Ipopt is released as open source code under the Eclipse Public License (EPL).
         For more information visit http://projects.coin-or.org/Ipopt
******************************************************************************

This is Ipopt version 3.12.6, running with linear solver ma57.

Number of nonzeros in equality constraint Jacobian...:   299998
Number of nonzeros in inequality constraint Jacobian.:        0
Number of nonzeros in Lagrangian Hessian.............:   199999

Total number of variables............................:   100000
                     variables with only lower bounds:        0
                variables with lower and upper bounds:        0
                     variables with only upper bounds:        0
Total number of equality constraints.................:   100000
Total number of inequality constraints...............:        0
        inequality constraints with only lower bounds:        0
   inequality constraints with lower and upper bounds:        0
        inequality constraints with only upper bounds:        0

iter    objective    inf_pr   inf_du lg(mu)  ||d||  lg(rg) alpha_du alpha_pr  ls
   0  0.0000000e+00 2.40e+04 0.00e+00  -1.0 0.00e+00    -  0.00e+00 0.00e+00   0
   1  0.0000000e+00 6.27e+03 0.00e+00  -1.0 5.25e-01    -  1.00e+00 1.00e+00h  1
   2  0.0000000e+00 1.48e+03 0.00e+00  -1.0 3.08e-01    -  1.00e+00 1.00e+00h  1
   3  0.0000000e+00 2.27e+02 0.00e+00  -1.0 1.35e-01    -  1.00e+00 1.00e+00h  1
   4  0.0000000e+00 1.01e+01 0.00e+00  -1.7 3.01e-02    -  1.00e+00 1.00e+00h  1
   5  0.0000000e+00 2.37e-02 0.00e+00  -3.8 1.49e-03    -  1.00e+00 1.00e+00h  1
   6  0.0000000e+00 1.36e-07 0.00e+00  -5.7 3.59e-06    -  1.00e+00 1.00e+00h  1
Cannot recompute multipliers for feasibility problem.  Error in eq_mult_calculator

Number of Iterations....: 6

                                   (scaled)                 (unscaled)
Objective...............:   0.0000000000000000e+00    0.0000000000000000e+00
Dual infeasibility......:   0.0000000000000000e+00    0.0000000000000000e+00
Constraint violation....:   4.5667881945179705e-10    1.3646336338712928e-07
Complementarity.........:   0.0000000000000000e+00    0.0000000000000000e+00
Overall NLP error.......:   4.5667881945179705e-10    1.3646336338712928e-07


Number of objective function evaluations             = 7
Number of objective gradient evaluations             = 7
Number of equality constraint evaluations            = 7
Number of inequality constraint evaluations          = 0
Number of equality constraint Jacobian evaluations   = 7
Number of inequality constraint Jacobian evaluations = 0
Number of Lagrangian Hessian evaluations             = 6
Total CPU secs in IPOPT (w/o function evaluations)   =      0.777
Total CPU secs in NLP function evaluations           =      0.437

EXIT: Optimal Solution Found.
Note: The following floating-point exceptions are signalling: IEEE_UNDERFLOW_FLAG IEEE_DENORMAL

************************ CUTEst statistics ************************


 Package used            :  IPOPT
 Problem                 :  OSCIGRNE  
 # variables             =          100000
 # constraints           =          100000
 # objective functions   =        0.1500000E+02
 # objective gradients   =        0.8000000E+01
 # objective Hessians    =        0.7000000E+01
 # Hessian-vector prdct  =        0.0000000E+00
 # constraints functions =        0.1600000E+02
 # constraints gradients =        0.9000000E+01
 # constraints Hessians  =        0.7000000E+01
 Exit code               =               0
 Final f                 =   0.0000000E+00
 Set up time             =            0.51 seconds
 Solve time              =            2.90 seconds


******************************************************************

System Time =       0.8569999933 s.
